[on. 05. april 13:38:50 +0200 2023]  ./input/alternate_g_np_100/100-1-1.gcc
Set parameter Username
Academic license - for non-commercial use only - expires 2024-03-28
Set parameter TimeLimit to value 1800
Set parameter PreCrush to value 1
Set parameter LazyConstraints to value 1
Gurobi Optimizer version 10.0.1 build v10.0.1rc0 (linux64)

CPU model: AMD Ryzen 9 5950X 16-Core Processor, instruction set [SSE2|AVX|AVX2]
Thread count: 16 physical cores, 32 logical processors, using up to 32 threads

Optimize a model with 106 rows, 700 columns and 1900 nonzeros
Model fingerprint: 0x4bf90f89
Variable types: 0 continuous, 700 integer (700 binary)
Coefficient statistics:
  Matrix range     [1e+00, 1e+00]
  Objective range  [1e+00, 1e+02]
  Bounds range     [1e+00, 1e+00]
  RHS range        [1e+00, 1e+00]
Presolve added 5 rows and 5 columns
Presolve time: 0.00s
Presolved: 111 rows, 705 columns, 1415 nonzeros
Variable types: 0 continuous, 705 integer (700 binary)

Root relaxation: objective 5.258000e+03, 1 iterations, 0.00 seconds (0.00 work units)

    Nodes    |    Current Node    |     Objective Bounds      |     Work
 Expl Unexpl |  Obj  Depth IntInf | Incumbent    BestBd   Gap | It/Node Time

     0     0 5258.00000    0    -          - 5258.00000      -     -    0s
     0     0 5258.00000    0    -          - 5258.00000      -     -    0s
     0     0 5258.00000    0    -          - 5258.00000      -     -    0s
     0     0 5258.00000    0    -          - 5258.00000      -     -    0s
     0     0 5258.00000    0    -          - 5258.00000      -     -    0s
     0     0 5258.00000    0    8          - 5258.00000      -     -    0s
     0     0 5258.00000    0   11          - 5258.00000      -     -    0s
     0     0 3467.00000    0    -          - 3467.00000      -     -    0s
     0     0 3467.00000    0   19          - 3467.00000      -     -    0s
     0     0 3422.33333    0   23          - 3422.33333      -     -    0s
     0     0 3383.00000    0   25          - 3383.00000      -     -    0s
     0     0 3313.50000    0   43          - 3313.50000      -     -    0s
     0     0 3291.18704    0   62          - 3291.18704      -     -    0s
     0     0 3262.58347    0   58          - 3262.58347      -     -    0s
     0     2 3128.24699    0   89          - 3128.24699      -     -    0s
H 2258  1898                    1386.0000000 2237.51772  61.4%  52.5    1s
H 2258  1802                    1984.0000000 2237.51772  12.8%  52.5    2s
H 2282  1727                    2154.0000000 2237.00000  3.85%  58.4    3s
* 2521  1595              22    2191.0000000 2237.00000  2.10%  70.7    3s
* 2594  1454              25    2201.0000000 2237.00000  1.64%  71.1    3s

Cutting planes:
  User: 412
  Gomory: 3
  Flow cover: 1
  Lazy constraints: 31

Explored 2670 nodes (193185 simplex iterations) in 4.12 seconds (7.73 work units)
Thread count was 32 (of 32 available processors)

Solution count 5: 2201 2191 2154 ... 1386

Optimal solution found (tolerance 1.00e-04)
Best objective 2.201000000000e+03, best bound 2.201000000000e+03, gap 0.0000%

User-callback calls 6784, time in user-callback 0.44 sec
Minimal separator inequalities added: 2560
Indegree inequalities added: 15932
Passed solution check
[on. 05. april 13:38:54 +0200 2023]  done

